Normalized Data/p02_1050_tsplib0_normalized_split0.vrp
NAME:p02_1050_tsplib0_NORMALIZED_split
BEST_KNOWN: 0
COMMENT: 0
DIMENSION: 294
CAPACITY: 100
EDGE_WEIGHT_FORMAT: FUNCTION
EDGE_WEIGHT_TYPE: EXACT_2D
NODE_COORD_SECTION
1 0.00000 0.00000
2 -18 -18
3 -18 -18
4 -18 -18
5 -18 -18
6 -18 -18
7 -4 -14
8 -4 -14
9 -19 5
10 -19 5
11 -19 5
12 -19 5
13 -19 5
14 5 -5
15 5 -5
16 5 -5
17 5 -5
18 15 -20
19 15 -20
20 15 -20
21 -7 -6
22 -7 -6
23 -7 -6
24 -7 -6
25 -7 -6
26 -7 -6
27 10 10
28 10 10
29 10 10
30 10 10
31 10 10
32 10 10
33 15 5
34 15 5
35 15 5
36 15 5
37 15 5
38 -14 19
39 -14 19
40 -14 19
41 -14 19
42 0 26
43 15 25
44 15 25
45 15 25
46 15 25
47 -5 11
48 -5 11
49 22 -5
50 22 -5
51 22 -5
52 22 -5
53 22 -5
54 22 17
55 22 17
56 22 -16
57 22 -16
58 22 -16
59 22 -16
60 22 -16
61 -19 -4
62 -19 -4
63 -7 4
64 -7 4
65 -7 4
66 -31 16
67 -31 16
68 22 8
69 22 8
70 22 8
71 22 8
72 22 8
73 26 -26
74 26 -26
75 26 -26
76 4 -27
77 4 -27
78 4 -27
79 4 -27
80 -14 -27
81 -14 -27
82 -14 -27
83 -29 -12
84 -29 -12
85 -29 -12
86 -33 3
87 -33 3
88 -33 3
89 -33 3
90 -23 24
91 -23 24
92 -23 24
93 1 6
94 1 6
95 1 6
96 1 6
97 1 6
98 1 6
99 1 6
100 15 -6
101 -5 -24
102 -5 -24
103 12 -14
104 12 -14
105 3 -14
106 3 -14
107 3 -14
108 3 -14
109 -9 36
110 -9 36
111 -9 36
112 -9 36
113 -9 36
114 -18 13
115 -18 13
116 -18 13
117 -14 -11
118 -14 -11
119 -14 -11
120 -14 -11
121 10 0
122 10 0
123 10 0
124 10 0
125 10 0
126 15 10
127 15 10
128 15 10
129 15 10
130 15 10
131 14 -30
132 14 -30
133 14 -30
134 14 -30
135 14 -30
136 20 -25
137 20 -25
138 7 26
139 7 26
140 7 26
141 7 26
142 7 26
143 7 26
144 -10 20
145 -10 20
146 -10 20
147 -10 20
148 -10 20
149 -10 20
150 -10 10
151 -10 10
152 -10 10
153 -10 10
154 -28 -23
155 -28 -23
156 -28 -23
157 -28 -23
158 -25 -26
159 -25 -26
160 -25 -26
161 -24 -21
162 -24 -21
163 -24 -21
164 -19 8
165 -19 8
166 -19 8
167 -19 8
168 10 -10
169 10 -10
170 10 -10
171 11 2
172 10 -25
173 10 -25
174 10 -25
175 10 -25
176 10 -25
177 10 -25
178 8 -19
179 8 -19
180 8 -19
181 8 -19
182 -28 -2
183 -28 -2
184 -28 -2
185 -28 -2
186 -28 -2
187 -25 16
188 -25 16
189 -25 16
190 -25 16
191 -25 16
192 -25 16
193 -11 -1
194 -11 -1
195 -11 -1
196 -11 -1
197 14 -2
198 14 -2
199 14 -2
200 15 17
201 15 17
202 15 17
203 27 1
204 27 1
205 27 1
206 27 1
207 -30 30
208 -30 30
209 -30 30
210 -30 30
211 -30 30
212 -30 30
213 -30 30
214 -34 -15
215 -34 -15
216 -34 -15
217 -34 -15
218 -34 -15
219 -34 -15
220 25 -13
221 25 -13
222 25 -13
223 0 20
224 0 20
225 0 20
226 0 20
227 0 20
228 30 24
229 30 24
230 24 -36
231 24 -36
232 24 -36
233 -4 -34
234 -4 -34
235 -4 -34
236 -10 -20
237 -20 -10
238 -20 -10
239 -20 -10
240 -25 -35
241 -25 -35
242 10 30
243 10 30
244 10 30
245 10 30
246 17 32
247 17 32
248 17 32
249 17 32
250 17 32
251 5 2
252 5 2
253 5 2
254 5 2
255 5 2
256 -2 -7
257 -2 -7
258 -2 -7
259 -2 -7
260 10 -36
261 10 -36
262 10 -36
263 10 -36
264 10 -36
265 10 -36
266 10 -36
267 26 -32
268 26 -32
269 26 -32
270 26 -32
271 26 -32
272 26 -32
273 19 -35
274 19 -35
275 19 -35
276 19 -35
277 19 -35
278 -5 20
279 -5 20
280 -5 20
281 -13 -16
282 -13 -16
283 -13 -16
284 -13 -16
285 -13 -16
286 0 -20
287 0 -20
288 0 -20
289 0 -20
290 0 -20
291 0 -20
292 0 -20
293 0 -3
294 0 -3
DEMAND_SECTION
1 0
2 20
3 20
4 1
5 1
6 1
7 20
8 5
9 10
10 5
11 1
12 1
13 1
14 20
15 10
16 1
17 1
18 20
19 20
20 5
21 20
22 20
23 1
24 1
25 1
26 1
27 20
28 5
29 1
30 1
31 1
32 1
33 10
34 1
35 1
36 1
37 1
38 10
39 5
40 1
41 1
42 10
43 20
44 20
45 1
46 1
47 20
48 5
49 20
50 5
51 1
52 1
53 1
54 20
55 10
56 20
57 10
58 5
59 1
60 1
61 20
62 1
63 10
64 1
65 1
66 20
67 10
68 20
69 20
70 1
71 1
72 1
73 20
74 10
75 1
76 10
77 1
78 1
79 1
80 20
81 10
82 5
83 20
84 10
85 5
86 20
87 10
88 1
89 1
90 20
91 20
92 1
93 20
94 10
95 5
96 1
97 1
98 1
99 1
100 10
101 20
102 20
103 10
104 5
105 10
106 1
107 1
108 1
109 20
110 20
111 1
112 1
113 1
114 20
115 20
116 1
117 20
118 20
119 1
120 1
121 10
122 5
123 1
124 1
125 1
126 20
127 20
128 1
129 1
130 1
131 20
132 5
133 1
134 1
135 1
136 20
137 20
138 20
139 5
140 1
141 1
142 1
143 1
144 20
145 5
146 1
147 1
148 1
149 1
150 20
151 20
152 1
153 1
154 10
155 5
156 1
157 1
158 10
159 1
160 1
161 20
162 10
163 5
164 20
165 10
166 5
167 1
168 20
169 20
170 5
171 20
172 20
173 5
174 1
175 1
176 1
177 1
178 20
179 5
180 1
181 1
182 20
183 20
184 1
185 1
186 1
187 20
188 10
189 1
190 1
191 1
192 1
193 20
194 10
195 5
196 1
197 20
198 10
199 5
200 10
201 1
202 1
203 20
204 20
205 5
206 1
207 20
208 10
209 5
210 1
211 1
212 1
213 1
214 20
215 10
216 5
217 1
218 1
219 1
220 20
221 1
222 1
223 20
224 10
225 5
226 1
227 1
228 20
229 5
230 20
231 1
232 1
233 20
234 20
235 5
236 20
237 20
238 1
239 1
240 20
241 1
242 20
243 1
244 1
245 1
246 20
247 5
248 1
249 1
250 1
251 20
252 20
253 1
254 1
255 1
256 10
257 1
258 1
259 1
260 20
261 20
262 5
263 1
264 1
265 1
266 1
267 20
268 20
269 1
270 1
271 1
272 1
273 20
274 20
275 5
276 1
277 1
278 20
279 20
280 5
281 20
282 20
283 1
284 1
285 1
286 20
287 20
288 5
289 1
290 1
291 1
292 1
293 10
294 1
DEPOT_SECTION
1
-1
EOF