Normalized Data/p02_1050_tsplib0_normalized_split0.sol
293 -4 5 3 2 1 81 80 79 235 -8 9 12 11 10 115 114 113 149 152 150 -13 16 15 14 167 169 197 196 198 121 123 122 124 -24 25 23 22 20 21 193 194 195 192 64 63 62 -30 29 26 27 126 125 33 34 36 32 170 -31 28 42 45 44 43 244 241 243 242 140 137 138 142 141 139 -35 67 68 69 71 70 205 202 203 204 120 -37 40 38 39 206 212 210 211 208 207 209 89 90 91 151 -47 46 143 146 145 148 147 144 277 279 278 -59 58 56 57 55 219 221 220 49 51 48 52 50 99 -60 61 184 183 182 185 181 88 87 86 85 -74 72 73 270 266 267 271 268 269 230 229 231 -77 76 78 75 232 234 233 101 100 -83 84 82 215 218 217 214 213 216 236 238 237 -94 96 92 93 97 95 98 -103 136 135 273 272 274 276 275 131 134 132 179 -106 107 104 105 290 291 289 288 285 286 287 6 7 255 257 258 256 -111 109 110 112 108 41 222 226 225 224 223 -118 117 119 116 280 281 282 284 283 -128 127 129 53 54 228 227 248 247 246 249 245 199 200 201 -160 162 161 156 155 154 153 159 158 157 240 239 -165 163 166 164 65 66 189 190 191 188 186 187 -168 102 17 19 18 177 178 -180 175 174 171 172 176 173 133 130 260 264 263 259 261 265 262 -250 253 251 252 254 -292 293 0 





OBJ=
1515.089
BEST_KNOWN=
0.000